problem_generation/data/GISP/train/er_n=69_m=1349_p=0.60_SET2_setparam=100.00_alpha=0.50_484.lp
maximize
OBJ:100x0 + 100x1 + 100x2 + 100x3 + 100x4 + 100x5 + 100x6 + 100x7 + 100x8 + 100x9 + 100x10 + 100x11 + 100x12 + 100x13 + 100x14 + 100x15 + 100x16 + 100x17 + 100x18 + 100x19 + 100x20 + 100x21 + 100x22 + 100x23 + 100x24 + 100x25 + 100x26 + 100x27 + 100x28 + 100x29 + 100x30 + 100x31 + 100x32 + 100x33 + 100x34 + 100x35 + 100x36 + 100x37 + 100x38 + 100x39 + 100x40 + 100x41 + 100x42 + 100x43 + 100x44 + 100x45 + 100x46 + 100x47 + 100x48 + 100x49 + 100x50 + 100x51 + 100x52 + 100x53 + 100x54 + 100x55 + 100x56 + 100x57 + 100x58 + 100x59 + 100x60 + 100x61 + 100x62 + 100x63 + 100x64 + 100x65 + 100x66 + 100x67 + 100x68 - y36_53 - y15_30 - y7_26 - y17_58 - y28_67 - y29_32 - y8_9 - y9_63 - y40_41 - y8_18 - y11_14 - y40_50 - y48_63 - y21_46 - y11_23 - y21_64 - y10_45 - y33_56 - y44_56 - y22_28 - y3_24 - y43_60 - y22_37 - y2_68 - y3_42 - y15_25 - y55_61 - y47_57 - y47_66 - y59_68 - y5_60 - y6_34 - y21_32 - y6_43 - y48_58 - y6_52 - y40_54 - y29_63 - y10_22 - y10_31 - y2_27 - y25_29 - y22_32 - y51_68 - y32_64 - y43_64 - y16_65 - y36_43 - y7_16 - y36_52 - y5_46 - y36_61 - y59_63 - y6_29 - y58_67 - y9_62 - y21_27 - y21_36 - y10_26 - y2_22 - y54_60 - y33_37 - y2_40 - y32_50 - y22_27 - y32_59 - y43_59 - y16_51 - y1_62 - y17_34 - y36_47 - y36_56 - y47_56 - y6_15 - y47_65 - y58_62 - y50_58 - y6_33 - y29_35 - y50_67 - y61_67 - y21_49 - y39_48 - y39_57 - y54_55 - y62_68 - y20_62 - y12_58 - y12_67 - y32_45 - y43_45 - y24_41 - y3_18 - y16_37 - y43_54 - y1_48 - y35_59 - y16_55 - y24_68 - y28_29 - y36_42 - y17_38 - y17_47 - y29_30 - y58_66 - y6_37 - y6_46 - y30_65 - y10_16 - y62_63 - y12_44 - y2_21 - y20_57 - y31_66 - y3_4 - y4_58 - y1_34 - y4_67 - y17_24 - y5_31 - y28_33 - y28_42 - y9_38 - y5_58 - y58_61 - y42_44 - y61_66 - y0_65 - y11_65 - y39_47 - y12_39 - y12_48 - y23_48 - y31_61 - y23_57 - y4_53 - y23_66 - y13_31 - y53_67 - y4_62 - y1_38 - y13_40 - y35_40 - y43_53 - y35_49 - y5_8 - y35_58 - y17_28 - y17_37 - y28_37 - y15_67 - y5_44 - y27_59 - y11_51 - y30_64 - y20_29 - y42_66 - y20_38 - y31_38 - y39_51 - y2_11 - y23_43 - y23_52 - y13_17 - y12_61 - y1_24 - y24_26 - y53_62 - y16_22 - y16_31 - y1_42 - y16_40 - y16_49 - y5_12 - y46_50 - y5_21 - y17_23 - y9_19 - y15_53 - y26_53 - y46_68 - y57_68 - y38_64 - y6_13 - y18_67 - y8_41 - y19_41 - y27_54 - y30_41 - y42_52 - y8_68 - y0_64 - y12_29 - y39_46 - y31_42 - y4_34 - y1_10 - y12_56 - y1_19 - y16_26 - y22_60 - y46_54 - y9_14 - y57_63 - y26_57 - y49_59 - y7_53 - y49_68 - y7_62 - y18_62 - y19_27 - y27_40 - y11_32 - y8_45 - y30_45 - y42_47 - y0_41 - y11_41 - y8_54 - y0_50 - y12_15 - y20_28 - y4_11 - y12_24 - y23_24 - y20_37 - y0_68 - y23_42 - y1_14 - y4_47 - y34_48 - y1_23 - y37_44 - y53_61 - y34_57 - y3_51 - y37_53 - y22_64 - y37_62 - y46_49 - y26_43 - y38_45 - y46_58 - y38_54 - y38_63 - y49_63 - y19_22 - y7_66 - y11_27 - y11_36 - y8_49 - y41_55 - y52_55 - y12_28 - y12_37 - y1_9 - y25_65 - y37_39 - y34_52 - y64_65 - y34_61 - y3_55 - y37_66 - y7_25 - y18_25 - y38_40 - y38_49 - y15_56 - y0_4 - y0_13 - y18_61 - y48_62 - y27_39 - y11_22 - y0_31 - y8_44 - y0_40 - y4_19 - y25_51 - y44_64 - y2_58 - y34_38 - y34_47 - y45_47 - y37_43 - y45_56 - y3_50 - y37_52 - y14_59 - y18_20 - y3_68 - y14_68 - y26_33 - y7_29 - y15_42 - y8_12 - y8_21 - y48_57 - y11_17 - y19_30 - y21_67 - y41_45 - y60_67 - y41_63 - y2_44 - y25_46 - y33_59 - y44_59 - y52_63 - y10_66 - y3_36 - y22_49 - y34_51 - y3_45 - y22_58 - y37_56 - y14_63 - y59_62 - y15_37 - y7_42 - y48_52 - y0_12 - y21_53 - y6_64 - y29_66 - y63_68 - y21_62 - y10_43 - y41_58 - y2_39 - y3_13 - y10_61 - y22_26 - y44_63 - y2_57 - y14_22 - y51_62 - y14_31 - y43_67 - y3_40 - y14_40 - y22_53 - y7_10 - y17_51 - y7_37 - y9_56 - y5_67 - y6_41 - y29_43 - y21_39 - y21_57 - y6_68 - y10_29 - y41_44 - y10_47 - y2_43 - y51_57 - y3_17 - y51_66 - y3_26 - y43_62 - y13_58 - y14_35 - y7_14 - y55_63 - y47_59 - y9_42 - y5_53 - y17_55 - y28_55 - y47_68 - y0_2 - y6_36 - y6_45 - y29_47 - y40_47 - y21_52 - y10_15 - y20_65 - y2_38 - y25_40 - y10_51 - y32_48 - y51_61 - y24_53 - y1_60 - y16_67 - y17_32 - y36_54 - y28_50 - y47_63 - y5_57 - y17_59 - y50_65 - y29_42 - y40_42 - y6_49 - y29_51 - y21_47 - y2_6 - y10_28 - y62_66 - y25_26 - y31_60 - y10_37 - y54_62 - y2_33 - y32_43 - y32_52 - y3_25 - y16_44 - y1_55 - y24_57 - y17_18 - y13_66 - y17_36 - y36_49 - y6_17 - y9_50 - y39_50 - y10_23 - y31_55 - y10_32 - y31_64 - y13_25 - y2_37 - y32_38 - y3_11 - y4_65 - y32_56 - y1_50 - y24_52 - y43_65 - y24_61 - y16_66 - y5_29 - y9_27 - y17_40 - y28_40 - y5_47 - y28_49 - y58_59 - y9_54 - y58_68 - y21_28 - y27_62 - y50_64 - y8_58 - y8_67 - y39_45 - y2_5 - y20_41 - y10_18 - y31_41 - y31_50 - y12_46 - y23_46 - y20_59 - y4_42 - y13_29 - y4_60 - y51_55 - y13_38 - y24_38 - y32_51 - y13_47 - y16_43 - y16_52 - y65_66 - y9_13 - y16_61 - y27_57 - y19_53 - y50_68 - y0_58 - y39_40 - y0_67 - y39_49 - y20_45 - y31_45 - y20_54 - y4_37 - y1_31 - y45_65 - y24_51 - y16_47 - y9_17 - y5_28 - y17_30 - y26_60 - y38_62 - y9_35 - y6_11 - y7_65 - y50_54 - y27_61 - y0_44 - y8_57 - y11_53 - y42_68 - y39_44 - y12_27 - y23_27 - y31_40 - y4_23 - y12_36 - y23_36 - y20_49 - y31_49 - y53_55 - y1_35 - y22_67 - y16_42 - y38_39 - y5_14 - y9_12 - y38_48 - y46_61 - y26_55 - y38_66 - y49_66 - y8_34 - y30_34 - y0_30 - y42_45 - y0_48 - y8_61 - y12_22 - y4_18 - y0_66 - y11_66 - y12_31 - y41_67 - y4_27 - y1_3 - y23_49 - y13_23 - y4_54 - y16_19 - y34_55 - y53_68 - y56_64 - y3_58 - y5_9 - y46_47 - y15_41 - y26_41 - y38_52 - y49_52 - y57_65 - y15_59 - y26_59 - y49_61 - y7_55 - y18_55 - y19_29 - y27_42 - y0_25 - y8_38 - y0_34 - y8_47 - y19_47 - y30_47 - y0_43 - y19_56 - y30_56 - y0_52 - y11_52 - y12_17 - y20_30 - y4_13 - y11_61 - y41_53 - y60_66 - y4_22 - y44_58 - y4_31 - y44_67 - y34_41 - y53_63 - y37_46 - y45_59 - y34_68 - y3_62 - y15_27 - y15_45 - y7_41 - y38_56 - y26_63 - y27_28 - y8_24 - y27_37 - y7_68 - y29_65 - y63_67 - y0_38 - y19_51 - y30_51 - y60_61 - y41_57 - y52_57 - y4_17 - y25_49 - y34_36 - y2_65 - y34_54 - y14_57 - y37_59 - y7_18 - y3_66 - y15_40 - y26_40 - y7_36 - y26_58 - y48_55 - y27_32 - y0_15 - y8_28 - y30_37 - y21_56 - y21_65 - y41_43 - y33_39 - y41_52 - y25_53 - y33_66 - y1_6 - y22_38 - y14_34 - y22_47 - y34_49 - y3_43 - y14_52 - y7_13 - y14_61 - y18_22 - y7_31 - y36_67 - y15_44 - y47_67 - y7_40 - y18_40 - y0_1 - y0_10 - y29_46 - y8_23 - y19_23 - y30_32 - y6_62 - y11_28 - y63_66 - y21_60 - y33_34 - y41_47 - y4_16 - y10_50 - y41_65 - y14_20 - y34_35 - y25_66 - y22_51 - y3_47 - y7_8
 Subject to
C1: x0+x1-y0_1 <=1 
C2: x0+x2-y0_2 <=1 
C3: x0+x3 <=1 
C4: x0+x4-y0_4 <=1 
C5: x0+x5 <=1 
C6: x0+x6 <=1 
C7: x0+x10-y0_10 <=1 
C8: x0+x12-y0_12 <=1 
C9: x0+x13-y0_13 <=1 
C10: x0+x15-y0_15 <=1 
C11: x0+x17 <=1 
C12: x0+x19 <=1 
C13: x0+x25-y0_25 <=1 
C14: x0+x27 <=1 
C15: x0+x29 <=1 
C16: x0+x30-y0_30 <=1 
C17: x0+x31-y0_31 <=1 
C18: x0+x34-y0_34 <=1 
C19: x0+x36 <=1 
C20: x0+x38-y0_38 <=1 
C21: x0+x40-y0_40 <=1 
C22: x0+x41-y0_41 <=1 
C23: x0+x43-y0_43 <=1 
C24: x0+x44-y0_44 <=1 
C25: x0+x45 <=1 
C26: x0+x47 <=1 
C27: x0+x48-y0_48 <=1 
C28: x0+x49 <=1 
C29: x0+x50-y0_50 <=1 
C30: x0+x51 <=1 
C31: x0+x52-y0_52 <=1 
C32: x0+x54 <=1 
C33: x0+x55 <=1 
C34: x0+x56 <=1 
C35: x0+x58-y0_58 <=1 
C36: x0+x59 <=1 
C37: x0+x60 <=1 
C38: x0+x61 <=1 
C39: x0+x64-y0_64 <=1 
C40: x0+x65-y0_65 <=1 
C41: x0+x66-y0_66 <=1 
C42: x0+x67-y0_67 <=1 
C43: x0+x68-y0_68 <=1 
C44: x1+x3-y1_3 <=1 
C45: x1+x6-y1_6 <=1 
C46: x1+x7 <=1 
C47: x1+x8 <=1 
C48: x1+x9-y1_9 <=1 
C49: x1+x10-y1_10 <=1 
C50: x1+x12 <=1 
C51: x1+x14-y1_14 <=1 
C52: x1+x16 <=1 
C53: x1+x18 <=1 
C54: x1+x19-y1_19 <=1 
C55: x1+x20 <=1 
C56: x1+x23-y1_23 <=1 
C57: x1+x24-y1_24 <=1 
C58: x1+x25 <=1 
C59: x1+x28 <=1 
C60: x1+x29 <=1 
C61: x1+x30 <=1 
C62: x1+x31-y1_31 <=1 
C63: x1+x32 <=1 
C64: x1+x34-y1_34 <=1 
C65: x1+x35-y1_35 <=1 
C66: x1+x36 <=1 
C67: x1+x38-y1_38 <=1 
C68: x1+x42-y1_42 <=1 
C69: x1+x44 <=1 
C70: x1+x47 <=1 
C71: x1+x48-y1_48 <=1 
C72: x1+x50-y1_50 <=1 
C73: x1+x53 <=1 
C74: x1+x54 <=1 
C75: x1+x55-y1_55 <=1 
C76: x1+x60-y1_60 <=1 
C77: x1+x62-y1_62 <=1 
C78: x2+x3 <=1 
C79: x2+x4 <=1 
C80: x2+x5-y2_5 <=1 
C81: x2+x6-y2_6 <=1 
C82: x2+x8 <=1 
C83: x2+x9 <=1 
C84: x2+x11-y2_11 <=1 
C85: x2+x14 <=1 
C86: x2+x18 <=1 
C87: x2+x19 <=1 
C88: x2+x21-y2_21 <=1 
C89: x2+x22-y2_22 <=1 
C90: x2+x23 <=1 
C91: x2+x24 <=1 
C92: x2+x26 <=1 
C93: x2+x27-y2_27 <=1 
C94: x2+x29 <=1 
C95: x2+x30 <=1 
C96: x2+x31 <=1 
C97: x2+x33-y2_33 <=1 
C98: x2+x34 <=1 
C99: x2+x35 <=1 
C100: x2+x37-y2_37 <=1 
C101: x2+x38-y2_38 <=1 
C102: x2+x39-y2_39 <=1 
C103: x2+x40-y2_40 <=1 
C104: x2+x41 <=1 
C105: x2+x43-y2_43 <=1 
C106: x2+x44-y2_44 <=1 
C107: x2+x45 <=1 
C108: x2+x47 <=1 
C109: x2+x52 <=1 
C110: x2+x56 <=1 
C111: x2+x57-y2_57 <=1 
C112: x2+x58-y2_58 <=1 
C113: x2+x59 <=1 
C114: x2+x62 <=1 
C115: x2+x63 <=1 
C116: x2+x64 <=1 
C117: x2+x65-y2_65 <=1 
C118: x2+x68-y2_68 <=1 
C119: x3+x4-y3_4 <=1 
C120: x3+x10 <=1 
C121: x3+x11-y3_11 <=1 
C122: x3+x13-y3_13 <=1 
C123: x3+x17-y3_17 <=1 
C124: x3+x18-y3_18 <=1 
C125: x3+x22 <=1 
C126: x3+x23 <=1 
C127: x3+x24-y3_24 <=1 
C128: x3+x25-y3_25 <=1 
C129: x3+x26-y3_26 <=1 
C130: x3+x34 <=1 
C131: x3+x36-y3_36 <=1 
C132: x3+x38 <=1 
C133: x3+x40-y3_40 <=1 
C134: x3+x42-y3_42 <=1 
C135: x3+x43-y3_43 <=1 
C136: x3+x45-y3_45 <=1 
C137: x3+x47-y3_47 <=1 
C138: x3+x48 <=1 
C139: x3+x49 <=1 
C140: x3+x50-y3_50 <=1 
C141: x3+x51-y3_51 <=1 
C142: x3+x53 <=1 
C143: x3+x54 <=1 
C144: x3+x55-y3_55 <=1 
C145: x3+x56 <=1 
C146: x3+x57 <=1 
C147: x3+x58-y3_58 <=1 
C148: x3+x59 <=1 
C149: x3+x62-y3_62 <=1 
C150: x3+x65 <=1 
C151: x3+x66-y3_66 <=1 
C152: x3+x67 <=1 
C153: x3+x68-y3_68 <=1 
C154: x4+x6 <=1 
C155: x4+x8 <=1 
C156: x4+x10 <=1 
C157: x4+x11-y4_11 <=1 
C158: x4+x13-y4_13 <=1 
C159: x4+x14 <=1 
C160: x4+x15 <=1 
C161: x4+x16-y4_16 <=1 
C162: x4+x17-y4_17 <=1 
C163: x4+x18-y4_18 <=1 
C164: x4+x19-y4_19 <=1 
C165: x4+x20 <=1 
C166: x4+x21 <=1 
C167: x4+x22-y4_22 <=1 
C168: x4+x23-y4_23 <=1 
C169: x4+x24 <=1 
C170: x4+x27-y4_27 <=1 
C171: x4+x31-y4_31 <=1 
C172: x4+x32 <=1 
C173: x4+x33 <=1 
C174: x4+x34-y4_34 <=1 
C175: x4+x35 <=1 
C176: x4+x36 <=1 
C177: x4+x37-y4_37 <=1 
C178: x4+x41 <=1 
C179: x4+x42-y4_42 <=1 
C180: x4+x43 <=1 
C181: x4+x44 <=1 
C182: x4+x46 <=1 
C183: x4+x47-y4_47 <=1 
C184: x4+x48 <=1 
C185: x4+x49 <=1 
C186: x4+x53-y4_53 <=1 
C187: x4+x54-y4_54 <=1 
C188: x4+x55 <=1 
C189: x4+x57 <=1 
C190: x4+x58-y4_58 <=1 
C191: x4+x60-y4_60 <=1 
C192: x4+x62-y4_62 <=1 
C193: x4+x63 <=1 
C194: x4+x64 <=1 
C195: x4+x65-y4_65 <=1 
C196: x4+x67-y4_67 <=1 
C197: x4+x68 <=1 
C198: x5+x8-y5_8 <=1 
C199: x5+x9-y5_9 <=1 
C200: x5+x12-y5_12 <=1 
C201: x5+x14-y5_14 <=1 
C202: x5+x15 <=1 
C203: x5+x17 <=1 
C204: x5+x20 <=1 
C205: x5+x21-y5_21 <=1 
C206: x5+x22 <=1 
C207: x5+x23 <=1 
C208: x5+x25 <=1 
C209: x5+x26 <=1 
C210: x5+x28-y5_28 <=1 
C211: x5+x29-y5_29 <=1 
C212: x5+x30 <=1 
C213: x5+x31-y5_31 <=1 
C214: x5+x32 <=1 
C215: x5+x33 <=1 
C216: x5+x34 <=1 
C217: x5+x35 <=1 
C218: x5+x37 <=1 
C219: x5+x39 <=1 
C220: x5+x40 <=1 
C221: x5+x41 <=1 
C222: x5+x43 <=1 
C223: x5+x44-y5_44 <=1 
C224: x5+x46-y5_46 <=1 
C225: x5+x47-y5_47 <=1 
C226: x5+x51 <=1 
C227: x5+x53-y5_53 <=1 
C228: x5+x54 <=1 
C229: x5+x57-y5_57 <=1 
C230: x5+x58-y5_58 <=1 
C231: x5+x60-y5_60 <=1 
C232: x5+x63 <=1 
C233: x5+x64 <=1 
C234: x5+x65 <=1 
C235: x5+x67-y5_67 <=1 
C236: x6+x10 <=1 
C237: x6+x11-y6_11 <=1 
C238: x6+x12 <=1 
C239: x6+x13-y6_13 <=1 
C240: x6+x15-y6_15 <=1 
C241: x6+x17-y6_17 <=1 
C242: x6+x19 <=1 
C243: x6+x29-y6_29 <=1 
C244: x6+x30 <=1 
C245: x6+x32 <=1 
C246: x6+x33-y6_33 <=1 
C247: x6+x34-y6_34 <=1 
C248: x6+x36-y6_36 <=1 
C249: x6+x37-y6_37 <=1 
C250: x6+x38 <=1 
C251: x6+x41-y6_41 <=1 
C252: x6+x43-y6_43 <=1 
C253: x6+x45-y6_45 <=1 
C254: x6+x46-y6_46 <=1 
C255: x6+x49-y6_49 <=1 
C256: x6+x51 <=1 
C257: x6+x52-y6_52 <=1 
C258: x6+x55 <=1 
C259: x6+x56 <=1 
C260: x6+x58 <=1 
C261: x6+x59 <=1 
C262: x6+x60 <=1 
C263: x6+x61 <=1 
C264: x6+x62-y6_62 <=1 
C265: x6+x63 <=1 
C266: x6+x64-y6_64 <=1 
C267: x6+x65 <=1 
C268: x6+x66 <=1 
C269: x6+x67 <=1 
C270: x6+x68-y6_68 <=1 
C271: x7+x8-y7_8 <=1 
C272: x7+x10-y7_10 <=1 
C273: x7+x13-y7_13 <=1 
C274: x7+x14-y7_14 <=1 
C275: x7+x15 <=1 
C276: x7+x16-y7_16 <=1 
C277: x7+x18-y7_18 <=1 
C278: x7+x20 <=1 
C279: x7+x21 <=1 
C280: x7+x22 <=1 
C281: x7+x23 <=1 
C282: x7+x25-y7_25 <=1 
C283: x7+x26-y7_26 <=1 
C284: x7+x29-y7_29 <=1 
C285: x7+x30 <=1 
C286: x7+x31-y7_31 <=1 
C287: x7+x36-y7_36 <=1 
C288: x7+x37-y7_37 <=1 
C289: x7+x40-y7_40 <=1 
C290: x7+x41-y7_41 <=1 
C291: x7+x42-y7_42 <=1 
C292: x7+x44 <=1 
C293: x7+x46 <=1 
C294: x7+x47 <=1 
C295: x7+x50 <=1 
C296: x7+x51 <=1 
C297: x7+x53-y7_53 <=1 
C298: x7+x54 <=1 
C299: x7+x55-y7_55 <=1 
C300: x7+x60 <=1 
C301: x7+x61 <=1 
C302: x7+x62-y7_62 <=1 
C303: x7+x65-y7_65 <=1 
C304: x7+x66-y7_66 <=1 
C305: x7+x68-y7_68 <=1 
C306: x8+x9-y8_9 <=1 
C307: x8+x11 <=1 
C308: x8+x12-y8_12 <=1 
C309: x8+x13 <=1 
C310: x8+x14 <=1 
C311: x8+x16 <=1 
C312: x8+x18-y8_18 <=1 
C313: x8+x21-y8_21 <=1 
C314: x8+x23-y8_23 <=1 
C315: x8+x24-y8_24 <=1 
C316: x8+x25 <=1 
C317: x8+x27 <=1 
C318: x8+x28-y8_28 <=1 
C319: x8+x31 <=1 
C320: x8+x32 <=1 
C321: x8+x33 <=1 
C322: x8+x34-y8_34 <=1 
C323: x8+x38-y8_38 <=1 
C324: x8+x39 <=1 
C325: x8+x41-y8_41 <=1 
C326: x8+x42 <=1 
C327: x8+x43 <=1 
C328: x8+x44-y8_44 <=1 
C329: x8+x45-y8_45 <=1 
C330: x8+x46 <=1 
C331: x8+x47-y8_47 <=1 
C332: x8+x48 <=1 
C333: x8+x49-y8_49 <=1 
C334: x8+x50 <=1 
C335: x8+x54-y8_54 <=1 
C336: x8+x55 <=1 
C337: x8+x56 <=1 
C338: x8+x57-y8_57 <=1 
C339: x8+x58-y8_58 <=1 
C340: x8+x59 <=1 
C341: x8+x60 <=1 
C342: x8+x61-y8_61 <=1 
C343: x8+x67-y8_67 <=1 
C344: x8+x68-y8_68 <=1 
C345: x9+x11 <=1 
C346: x9+x12-y9_12 <=1 
C347: x9+x13-y9_13 <=1 
C348: x9+x14-y9_14 <=1 
C349: x9+x15 <=1 
C350: x9+x17-y9_17 <=1 
C351: x9+x19-y9_19 <=1 
C352: x9+x20 <=1 
C353: x9+x22 <=1 
C354: x9+x24 <=1 
C355: x9+x25 <=1 
C356: x9+x26 <=1 
C357: x9+x27-y9_27 <=1 
C358: x9+x30 <=1 
C359: x9+x32 <=1 
C360: x9+x33 <=1 
C361: x9+x34 <=1 
C362: x9+x35-y9_35 <=1 
C363: x9+x36 <=1 
C364: x9+x37 <=1 
C365: x9+x38-y9_38 <=1 
C366: x9+x40 <=1 
C367: x9+x42-y9_42 <=1 
C368: x9+x43 <=1 
C369: x9+x44 <=1 
C370: x9+x45 <=1 
C371: x9+x46 <=1 
C372: x9+x48 <=1 
C373: x9+x50-y9_50 <=1 
C374: x9+x51 <=1 
C375: x9+x54-y9_54 <=1 
C376: x9+x56-y9_56 <=1 
C377: x9+x57 <=1 
C378: x9+x61 <=1 
C379: x9+x62-y9_62 <=1 
C380: x9+x63-y9_63 <=1 
C381: x9+x64 <=1 
C382: x9+x65 <=1 
C383: x9+x68 <=1 
C384: x10+x12 <=1 
C385: x10+x15-y10_15 <=1 
C386: x10+x16-y10_16 <=1 
C387: x10+x18-y10_18 <=1 
C388: x10+x19 <=1 
C389: x10+x20 <=1 
C390: x10+x22-y10_22 <=1 
C391: x10+x23-y10_23 <=1 
C392: x10+x26-y10_26 <=1 
C393: x10+x27 <=1 
C394: x10+x28-y10_28 <=1 
C395: x10+x29-y10_29 <=1 
C396: x10+x30 <=1 
C397: x10+x31-y10_31 <=1 
C398: x10+x32-y10_32 <=1 
C399: x10+x37-y10_37 <=1 
C400: x10+x39 <=1 
C401: x10+x43-y10_43 <=1 
C402: x10+x44 <=1 
C403: x10+x45-y10_45 <=1 
C404: x10+x46 <=1 
C405: x10+x47-y10_47 <=1 
C406: x10+x48 <=1 
C407: x10+x49 <=1 
C408: x10+x50-y10_50 <=1 
C409: x10+x51-y10_51 <=1 
C410: x10+x52 <=1 
C411: x10+x53 <=1 
C412: x10+x55 <=1 
C413: x10+x57 <=1 
C414: x10+x59 <=1 
C415: x10+x60 <=1 
C416: x10+x61-y10_61 <=1 
C417: x10+x66-y10_66 <=1 
C418: x11+x12 <=1 
C419: x11+x14-y11_14 <=1 
C420: x11+x16 <=1 
C421: x11+x17-y11_17 <=1 
C422: x11+x18 <=1 
C423: x11+x19 <=1 
C424: x11+x20 <=1 
C425: x11+x22-y11_22 <=1 
C426: x11+x23-y11_23 <=1 
C427: x11+x24 <=1 
C428: x11+x25 <=1 
C429: x11+x27-y11_27 <=1 
C430: x11+x28-y11_28 <=1 
C431: x11+x29 <=1 
C432: x11+x30 <=1 
C433: x11+x31 <=1 
C434: x11+x32-y11_32 <=1 
C435: x11+x36-y11_36 <=1 
C436: x11+x37 <=1 
C437: x11+x39 <=1 
C438: x11+x40 <=1 
C439: x11+x41-y11_41 <=1 
C440: x11+x43 <=1 
C441: x11+x51-y11_51 <=1 
C442: x11+x52-y11_52 <=1 
C443: x11+x53-y11_53 <=1 
C444: x11+x56 <=1 
C445: x11+x61-y11_61 <=1 
C446: x11+x63 <=1 
C447: x11+x65-y11_65 <=1 
C448: x11+x66-y11_66 <=1 
C449: x12+x13 <=1 
C450: x12+x15-y12_15 <=1 
C451: x12+x17-y12_17 <=1 
C452: x12+x21 <=1 
C453: x12+x22-y12_22 <=1 
C454: x12+x24-y12_24 <=1 
C455: x12+x25 <=1 
C456: x12+x27-y12_27 <=1 
C457: x12+x28-y12_28 <=1 
C458: x12+x29-y12_29 <=1 
C459: x12+x30 <=1 
C460: x12+x31-y12_31 <=1 
C461: x12+x36-y12_36 <=1 
C462: x12+x37-y12_37 <=1 
C463: x12+x39-y12_39 <=1 
C464: x12+x41 <=1 
C465: x12+x42 <=1 
C466: x12+x44-y12_44 <=1 
C467: x12+x46-y12_46 <=1 
C468: x12+x48-y12_48 <=1 
C469: x12+x51 <=1 
C470: x12+x52 <=1 
C471: x12+x54 <=1 
C472: x12+x55 <=1 
C473: x12+x56-y12_56 <=1 
C474: x12+x58-y12_58 <=1 
C475: x12+x61-y12_61 <=1 
C476: x12+x62 <=1 
C477: x12+x65 <=1 
C478: x12+x66 <=1 
C479: x12+x67-y12_67 <=1 
C480: x13+x14 <=1 
C481: x13+x15 <=1 
C482: x13+x16 <=1 
C483: x13+x17-y13_17 <=1 
C484: x13+x18 <=1 
C485: x13+x19 <=1 
C486: x13+x21 <=1 
C487: x13+x22 <=1 
C488: x13+x23-y13_23 <=1 
C489: x13+x24 <=1 
C490: x13+x25-y13_25 <=1 
C491: x13+x29-y13_29 <=1 
C492: x13+x30 <=1 
C493: x13+x31-y13_31 <=1 
C494: x13+x33 <=1 
C495: x13+x34 <=1 
C496: x13+x36 <=1 
C497: x13+x37 <=1 
C498: x13+x38-y13_38 <=1 
C499: x13+x39 <=1 
C500: x13+x40-y13_40 <=1 
C501: x13+x42 <=1 
C502: x13+x43 <=1 
C503: x13+x45 <=1 
C504: x13+x46 <=1 
C505: x13+x47-y13_47 <=1 
C506: x13+x51 <=1 
C507: x13+x52 <=1 
C508: x13+x56 <=1 
C509: x13+x57 <=1 
C510: x13+x58-y13_58 <=1 
C511: x13+x61 <=1 
C512: x13+x63 <=1 
C513: x13+x66-y13_66 <=1 
C514: x13+x67 <=1 
C515: x14+x16 <=1 
C516: x14+x17 <=1 
C517: x14+x20-y14_20 <=1 
C518: x14+x22-y14_22 <=1 
C519: x14+x27 <=1 
C520: x14+x30 <=1 
C521: x14+x31-y14_31 <=1 
C522: x14+x32 <=1 
C523: x14+x34-y14_34 <=1 
C524: x14+x35-y14_35 <=1 
C525: x14+x37 <=1 
C526: x14+x40-y14_40 <=1 
C527: x14+x47 <=1 
C528: x14+x52-y14_52 <=1 
C529: x14+x55 <=1 
C530: x14+x56 <=1 
C531: x14+x57-y14_57 <=1 
C532: x14+x59-y14_59 <=1 
C533: x14+x61-y14_61 <=1 
C534: x14+x62 <=1 
C535: x14+x63-y14_63 <=1 
C536: x14+x67 <=1 
C537: x14+x68-y14_68 <=1 
C538: x15+x16 <=1 
C539: x15+x20 <=1 
C540: x15+x21 <=1 
C541: x15+x22 <=1 
C542: x15+x23 <=1 
C543: x15+x25-y15_25 <=1 
C544: x15+x27-y15_27 <=1 
C545: x15+x28 <=1 
C546: x15+x30-y15_30 <=1 
C547: x15+x32 <=1 
C548: x15+x34 <=1 
C549: x15+x35 <=1 
C550: x15+x36 <=1 
C551: x15+x37-y15_37 <=1 
C552: x15+x38 <=1 
C553: x15+x39 <=1 
C554: x15+x40-y15_40 <=1 
C555: x15+x41-y15_41 <=1 
C556: x15+x42-y15_42 <=1 
C557: x15+x43 <=1 
C558: x15+x44-y15_44 <=1 
C559: x15+x45-y15_45 <=1 
C560: x15+x47 <=1 
C561: x15+x48 <=1 
C562: x15+x49 <=1 
C563: x15+x51 <=1 
C564: x15+x52 <=1 
C565: x15+x53-y15_53 <=1 
C566: x15+x56-y15_56 <=1 
C567: x15+x57 <=1 
C568: x15+x59-y15_59 <=1 
C569: x15+x62 <=1 
C570: x15+x65 <=1 
C571: x15+x67-y15_67 <=1 
C572: x15+x68 <=1 
C573: x16+x17 <=1 
C574: x16+x19-y16_19 <=1 
C575: x16+x21 <=1 
C576: x16+x22-y16_22 <=1 
C577: x16+x26-y16_26 <=1 
C578: x16+x27 <=1 
C579: x16+x30 <=1 
C580: x16+x31-y16_31 <=1 
C581: x16+x35 <=1 
C582: x16+x37-y16_37 <=1 
C583: x16+x40-y16_40 <=1 
C584: x16+x41 <=1 
C585: x16+x42-y16_42 <=1 
C586: x16+x43-y16_43 <=1 
C587: x16+x44-y16_44 <=1 
C588: x16+x47-y16_47 <=1 
C589: x16+x48 <=1 
C590: x16+x49-y16_49 <=1 
C591: x16+x50 <=1 
C592: x16+x51-y16_51 <=1 
C593: x16+x52-y16_52 <=1 
C594: x16+x55-y16_55 <=1 
C595: x16+x61-y16_61 <=1 
C596: x16+x62 <=1 
C597: x16+x63 <=1 
C598: x16+x65-y16_65 <=1 
C599: x16+x66-y16_66 <=1 
C600: x16+x67-y16_67 <=1 
C601: x16+x68 <=1 
C602: x17+x18-y17_18 <=1 
C603: x17+x19 <=1 
C604: x17+x20 <=1 
C605: x17+x23-y17_23 <=1 
C606: x17+x24-y17_24 <=1 
C607: x17+x25 <=1 
C608: x17+x26 <=1 
C609: x17+x27 <=1 
C610: x17+x28-y17_28 <=1 
C611: x17+x30-y17_30 <=1 
C612: x17+x31 <=1 
C613: x17+x32-y17_32 <=1 
C614: x17+x33 <=1 
C615: x17+x34-y17_34 <=1 
C616: x17+x36-y17_36 <=1 
C617: x17+x37-y17_37 <=1 
C618: x17+x38-y17_38 <=1 
C619: x17+x39 <=1 
C620: x17+x40-y17_40 <=1 
C621: x17+x42 <=1 
C622: x17+x43 <=1 
C623: x17+x47-y17_47 <=1 
C624: x17+x48 <=1 
C625: x17+x49 <=1 
C626: x17+x50 <=1 
C627: x17+x51-y17_51 <=1 
C628: x17+x54 <=1 
C629: x17+x55-y17_55 <=1 
C630: x17+x56 <=1 
C631: x17+x58-y17_58 <=1 
C632: x17+x59-y17_59 <=1 
C633: x17+x61 <=1 
C634: x17+x65 <=1 
C635: x17+x66 <=1 
C636: x17+x67 <=1 
C637: x17+x68 <=1 
C638: x18+x20-y18_20 <=1 
C639: x18+x21 <=1 
C640: x18+x22-y18_22 <=1 
C641: x18+x23 <=1 
C642: x18+x25-y18_25 <=1 
C643: x18+x26 <=1 
C644: x18+x27 <=1 
C645: x18+x29 <=1 
C646: x18+x32 <=1 
C647: x18+x36 <=1 
C648: x18+x37 <=1 
C649: x18+x38 <=1 
C650: x18+x39 <=1 
C651: x18+x40-y18_40 <=1 
C652: x18+x46 <=1 
C653: x18+x47 <=1 
C654: x18+x51 <=1 
C655: x18+x53 <=1 
C656: x18+x55-y18_55 <=1 
C657: x18+x57 <=1 
C658: x18+x59 <=1 
C659: x18+x60 <=1 
C660: x18+x61-y18_61 <=1 
C661: x18+x62-y18_62 <=1 
C662: x18+x63 <=1 
C663: x18+x66 <=1 
C664: x18+x67-y18_67 <=1 
C665: x19+x20 <=1 
C666: x19+x22-y19_22 <=1 
C667: x19+x23-y19_23 <=1 
C668: x19+x24 <=1 
C669: x19+x27-y19_27 <=1 
C670: x19+x29-y19_29 <=1 
C671: x19+x30-y19_30 <=1 
C672: x19+x31 <=1 
C673: x19+x32 <=1 
C674: x19+x37 <=1 
C675: x19+x40 <=1 
C676: x19+x41-y19_41 <=1 
C677: x19+x43 <=1 
C678: x19+x44 <=1 
C679: x19+x47-y19_47 <=1 
C680: x19+x49 <=1 
C681: x19+x51-y19_51 <=1 
C682: x19+x52 <=1 
C683: x19+x53-y19_53 <=1 
C684: x19+x56-y19_56 <=1 
C685: x19+x59 <=1 
C686: x19+x60 <=1 
C687: x19+x61 <=1 
C688: x19+x66 <=1 
C689: x19+x68 <=1 
C690: x20+x27 <=1 
C691: x20+x28-y20_28 <=1 
C692: x20+x29-y20_29 <=1 
C693: x20+x30-y20_30 <=1 
C694: x20+x37-y20_37 <=1 
C695: x20+x38-y20_38 <=1 
C696: x20+x41-y20_41 <=1 
C697: x20+x43 <=1 
C698: x20+x45-y20_45 <=1 
C699: x20+x46 <=1 
C700: x20+x49-y20_49 <=1 
C701: x20+x53 <=1 
C702: x20+x54-y20_54 <=1 
C703: x20+x57-y20_57 <=1 
C704: x20+x59-y20_59 <=1 
C705: x20+x62-y20_62 <=1 
C706: x20+x63 <=1 
C707: x20+x65-y20_65 <=1 
C708: x20+x66 <=1 
C709: x21+x22 <=1 
C710: x21+x23 <=1 
C711: x21+x24 <=1 
C712: x21+x25 <=1 
C713: x21+x26 <=1 
C714: x21+x27-y21_27 <=1 
C715: x21+x28-y21_28 <=1 
C716: x21+x30 <=1 
C717: x21+x31 <=1 
C718: x21+x32-y21_32 <=1 
C719: x21+x36-y21_36 <=1 
C720: x21+x37 <=1 
C721: x21+x38 <=1 
C722: x21+x39-y21_39 <=1 
C723: x21+x40 <=1 
C724: x21+x44 <=1 
C725: x21+x45 <=1 
C726: x21+x46-y21_46 <=1 
C727: x21+x47-y21_47 <=1 
C728: x21+x49-y21_49 <=1 
C729: x21+x52-y21_52 <=1 
C730: x21+x53-y21_53 <=1 
C731: x21+x54 <=1 
C732: x21+x56-y21_56 <=1 
C733: x21+x57-y21_57 <=1 
C734: x21+x60-y21_60 <=1 
C735: x21+x62-y21_62 <=1 
C736: x21+x63 <=1 
C737: x21+x64-y21_64 <=1 
C738: x21+x65-y21_65 <=1 
C739: x21+x66 <=1 
C740: x21+x67-y21_67 <=1 
C741: x22+x24 <=1 
C742: x22+x26-y22_26 <=1 
C743: x22+x27-y22_27 <=1 
C744: x22+x28-y22_28 <=1 
C745: x22+x29 <=1 
C746: x22+x32-y22_32 <=1 
C747: x22+x34 <=1 
C748: x22+x37-y22_37 <=1 
C749: x22+x38-y22_38 <=1 
C750: x22+x41 <=1 
C751: x22+x44 <=1 
C752: x22+x45 <=1 
C753: x22+x46 <=1 
C754: x22+x47-y22_47 <=1 
C755: x22+x48 <=1 
C756: x22+x49-y22_49 <=1 
C757: x22+x51-y22_51 <=1 
C758: x22+x53-y22_53 <=1 
C759: x22+x54 <=1 
C760: x22+x58-y22_58 <=1 
C761: x22+x60-y22_60 <=1 
C762: x22+x64-y22_64 <=1 
C763: x22+x66 <=1 
C764: x22+x67-y22_67 <=1 
C765: x23+x24-y23_24 <=1 
C766: x23+x25 <=1 
C767: x23+x27-y23_27 <=1 
C768: x23+x33 <=1 
C769: x23+x36-y23_36 <=1 
C770: x23+x38 <=1 
C771: x23+x42-y23_42 <=1 
C772: x23+x43-y23_43 <=1 
C773: x23+x44 <=1 
C774: x23+x46-y23_46 <=1 
C775: x23+x48-y23_48 <=1 
C776: x23+x49-y23_49 <=1 
C777: x23+x50 <=1 
C778: x23+x52-y23_52 <=1 
C779: x23+x54 <=1 
C780: x23+x57-y23_57 <=1 
C781: x23+x59 <=1 
C782: x23+x62 <=1 
C783: x23+x66-y23_66 <=1 
C784: x24+x25 <=1 
C785: x24+x26-y24_26 <=1 
C786: x24+x31 <=1 
C787: x24+x33 <=1 
C788: x24+x34 <=1 
C789: x24+x35 <=1 
C790: x24+x38-y24_38 <=1 
C791: x24+x39 <=1 
C792: x24+x41-y24_41 <=1 
C793: x24+x42 <=1 
C794: x24+x44 <=1 
C795: x24+x45 <=1 
C796: x24+x46 <=1 
C797: x24+x50 <=1 
C798: x24+x51-y24_51 <=1 
C799: x24+x52-y24_52 <=1 
C800: x24+x53-y24_53 <=1 
C801: x24+x56 <=1 
C802: x24+x57-y24_57 <=1 
C803: x24+x58 <=1 
C804: x24+x61-y24_61 <=1 
C805: x24+x63 <=1 
C806: x24+x68-y24_68 <=1 
C807: x25+x26-y25_26 <=1 
C808: x25+x29-y25_29 <=1 
C809: x25+x30 <=1 
C810: x25+x34 <=1 
C811: x25+x35 <=1 
C812: x25+x36 <=1 
C813: x25+x37 <=1 
C814: x25+x39 <=1 
C815: x25+x40-y25_40 <=1 
C816: x25+x41 <=1 
C817: x25+x42 <=1 
C818: x25+x44 <=1 
C819: x25+x46-y25_46 <=1 
C820: x25+x49-y25_49 <=1 
C821: x25+x51-y25_51 <=1 
C822: x25+x53-y25_53 <=1 
C823: x25+x54 <=1 
C824: x25+x55 <=1 
C825: x25+x57 <=1 
C826: x25+x59 <=1 
C827: x25+x60 <=1 
C828: x25+x61 <=1 
C829: x25+x62 <=1 
C830: x25+x63 <=1 
C831: x25+x65-y25_65 <=1 
C832: x25+x66-y25_66 <=1 
C833: x26+x27 <=1 
C834: x26+x30 <=1 
C835: x26+x31 <=1 
C836: x26+x32 <=1 
C837: x26+x33-y26_33 <=1 
C838: x26+x34 <=1 
C839: x26+x35 <=1 
C840: x26+x36 <=1 
C841: x26+x37 <=1 
C842: x26+x39 <=1 
C843: x26+x40-y26_40 <=1 
C844: x26+x41-y26_41 <=1 
C845: x26+x43-y26_43 <=1 
C846: x26+x47 <=1 
C847: x26+x48 <=1 
C848: x26+x49 <=1 
C849: x26+x50 <=1 
C850: x26+x53-y26_53 <=1 
C851: x26+x55-y26_55 <=1 
C852: x26+x57-y26_57 <=1 
C853: x26+x58-y26_58 <=1 
C854: x26+x59-y26_59 <=1 
C855: x26+x60-y26_60 <=1 
C856: x26+x63-y26_63 <=1 
C857: x26+x64 <=1 
C858: x26+x68 <=1 
C859: x27+x28-y27_28 <=1 
C860: x27+x30 <=1 
C861: x27+x32-y27_32 <=1 
C862: x27+x35 <=1 
C863: x27+x36 <=1 
C864: x27+x37-y27_37 <=1 
C865: x27+x39-y27_39 <=1 
C866: x27+x40-y27_40 <=1 
C867: x27+x42-y27_42 <=1 
C868: x27+x44 <=1 
C869: x27+x51 <=1 
C870: x27+x54-y27_54 <=1 
C871: x27+x57-y27_57 <=1 
C872: x27+x59-y27_59 <=1 
C873: x27+x61-y27_61 <=1 
C874: x27+x62-y27_62 <=1 
C875: x27+x63 <=1 
C876: x27+x64 <=1 
C877: x27+x66 <=1 
C878: x28+x29-y28_29 <=1 
C879: x28+x31 <=1 
C880: x28+x33-y28_33 <=1 
C881: x28+x34 <=1 
C882: x28+x35 <=1 
C883: x28+x36 <=1 
C884: x28+x37-y28_37 <=1 
C885: x28+x38 <=1 
C886: x28+x40-y28_40 <=1 
C887: x28+x41 <=1 
C888: x28+x42-y28_42 <=1 
C889: x28+x44 <=1 
C890: x28+x45 <=1 
C891: x28+x46 <=1 
C892: x28+x48 <=1 
C893: x28+x49-y28_49 <=1 
C894: x28+x50-y28_50 <=1 
C895: x28+x51 <=1 
C896: x28+x55-y28_55 <=1 
C897: x28+x56 <=1 
C898: x28+x60 <=1 
C899: x28+x61 <=1 
C900: x28+x63 <=1 
C901: x28+x66 <=1 
C902: x28+x67-y28_67 <=1 
C903: x29+x30-y29_30 <=1 
C904: x29+x31 <=1 
C905: x29+x32-y29_32 <=1 
C906: x29+x33 <=1 
C907: x29+x35-y29_35 <=1 
C908: x29+x37 <=1 
C909: x29+x39 <=1 
C910: x29+x40 <=1 
C911: x29+x41 <=1 
C912: x29+x42-y29_42 <=1 
C913: x29+x43-y29_43 <=1 
C914: x29+x45 <=1 
C915: x29+x46-y29_46 <=1 
C916: x29+x47-y29_47 <=1 
C917: x29+x50 <=1 
C918: x29+x51-y29_51 <=1 
C919: x29+x53 <=1 
C920: x29+x54 <=1 
C921: x29+x55 <=1 
C922: x29+x56 <=1 
C923: x29+x58 <=1 
C924: x29+x61 <=1 
C925: x29+x63-y29_63 <=1 
C926: x29+x64 <=1 
C927: x29+x65-y29_65 <=1 
C928: x29+x66-y29_66 <=1 
C929: x30+x32-y30_32 <=1 
C930: x30+x34-y30_34 <=1 
C931: x30+x37-y30_37 <=1 
C932: x30+x41-y30_41 <=1 
C933: x30+x43 <=1 
C934: x30+x45-y30_45 <=1 
C935: x30+x46 <=1 
C936: x30+x47-y30_47 <=1 
C937: x30+x49 <=1 
C938: x30+x50 <=1 
C939: x30+x51-y30_51 <=1 
C940: x30+x52 <=1 
C941: x30+x54 <=1 
C942: x30+x56-y30_56 <=1 
C943: x30+x62 <=1 
C944: x30+x63 <=1 
C945: x30+x64-y30_64 <=1 
C946: x30+x65-y30_65 <=1 
C947: x30+x67 <=1 
C948: x31+x32 <=1 
C949: x31+x33 <=1 
C950: x31+x34 <=1 
C951: x31+x37 <=1 
C952: x31+x38-y31_38 <=1 
C953: x31+x39 <=1 
C954: x31+x40-y31_40 <=1 
C955: x31+x41-y31_41 <=1 
C956: x31+x42-y31_42 <=1 
C957: x31+x45-y31_45 <=1 
C958: x31+x47 <=1 
C959: x31+x49-y31_49 <=1 
C960: x31+x50-y31_50 <=1 
C961: x31+x52 <=1 
C962: x31+x55-y31_55 <=1 
C963: x31+x56 <=1 
C964: x31+x60-y31_60 <=1 
C965: x31+x61-y31_61 <=1 
C966: x31+x63 <=1 
C967: x31+x64-y31_64 <=1 
C968: x31+x66-y31_66 <=1 
C969: x31+x67 <=1 
C970: x32+x34 <=1 
C971: x32+x36 <=1 
C972: x32+x38-y32_38 <=1 
C973: x32+x39 <=1 
C974: x32+x41 <=1 
C975: x32+x42 <=1 
C976: x32+x43-y32_43 <=1 
C977: x32+x45-y32_45 <=1 
C978: x32+x46 <=1 
C979: x32+x48-y32_48 <=1 
C980: x32+x49 <=1 
C981: x32+x50-y32_50 <=1 
C982: x32+x51-y32_51 <=1 
C983: x32+x52-y32_52 <=1 
C984: x32+x54 <=1 
C985: x32+x56-y32_56 <=1 
C986: x32+x57 <=1 
C987: x32+x59-y32_59 <=1 
C988: x32+x64-y32_64 <=1 
C989: x32+x65 <=1 
C990: x32+x67 <=1 
C991: x33+x34-y33_34 <=1 
C992: x33+x37-y33_37 <=1 
C993: x33+x38 <=1 
C994: x33+x39-y33_39 <=1 
C995: x33+x42 <=1 
C996: x33+x45 <=1 
C997: x33+x46 <=1 
C998: x33+x47 <=1 
C999: x33+x56-y33_56 <=1 
C1000: x33+x59-y33_59 <=1 
C1001: x33+x66-y33_66 <=1 
C1002: x33+x67 <=1 
C1003: x33+x68 <=1 
C1004: x34+x35-y34_35 <=1 
C1005: x34+x36-y34_36 <=1 
C1006: x34+x38-y34_38 <=1 
C1007: x34+x39 <=1 
C1008: x34+x41-y34_41 <=1 
C1009: x34+x43 <=1 
C1010: x34+x47-y34_47 <=1 
C1011: x34+x48-y34_48 <=1 
C1012: x34+x49-y34_49 <=1 
C1013: x34+x51-y34_51 <=1 
C1014: x34+x52-y34_52 <=1 
C1015: x34+x53 <=1 
C1016: x34+x54-y34_54 <=1 
C1017: x34+x55-y34_55 <=1 
C1018: x34+x57-y34_57 <=1 
C1019: x34+x59 <=1 
C1020: x34+x61-y34_61 <=1 
C1021: x34+x65 <=1 
C1022: x34+x66 <=1 
C1023: x34+x67 <=1 
C1024: x34+x68-y34_68 <=1 
C1025: x35+x37 <=1 
C1026: x35+x40-y35_40 <=1 
C1027: x35+x41 <=1 
C1028: x35+x43 <=1 
C1029: x35+x44 <=1 
C1030: x35+x45 <=1 
C1031: x35+x48 <=1 
C1032: x35+x49-y35_49 <=1 
C1033: x35+x50 <=1 
C1034: x35+x51 <=1 
C1035: x35+x53 <=1 
C1036: x35+x54 <=1 
C1037: x35+x56 <=1 
C1038: x35+x57 <=1 
C1039: x35+x58-y35_58 <=1 
C1040: x35+x59-y35_59 <=1 
C1041: x35+x61 <=1 
C1042: x35+x64 <=1 
C1043: x35+x68 <=1 
C1044: x36+x39 <=1 
C1045: x36+x42-y36_42 <=1 
C1046: x36+x43-y36_43 <=1 
C1047: x36+x47-y36_47 <=1 
C1048: x36+x49-y36_49 <=1 
C1049: x36+x50 <=1 
C1050: x36+x52-y36_52 <=1 
C1051: x36+x53-y36_53 <=1 
C1052: x36+x54-y36_54 <=1 
C1053: x36+x56-y36_56 <=1 
C1054: x36+x61-y36_61 <=1 
C1055: x36+x64 <=1 
C1056: x36+x66 <=1 
C1057: x36+x67-y36_67 <=1 
C1058: x37+x39-y37_39 <=1 
C1059: x37+x40 <=1 
C1060: x37+x43-y37_43 <=1 
C1061: x37+x44-y37_44 <=1 
C1062: x37+x45 <=1 
C1063: x37+x46-y37_46 <=1 
C1064: x37+x48 <=1 
C1065: x37+x49 <=1 
C1066: x37+x52-y37_52 <=1 
C1067: x37+x53-y37_53 <=1 
C1068: x37+x54 <=1 
C1069: x37+x56-y37_56 <=1 
C1070: x37+x57 <=1 
C1071: x37+x58 <=1 
C1072: x37+x59-y37_59 <=1 
C1073: x37+x60 <=1 
C1074: x37+x61 <=1 
C1075: x37+x62-y37_62 <=1 
C1076: x37+x66-y37_66 <=1 
C1077: x38+x39-y38_39 <=1 
C1078: x38+x40-y38_40 <=1 
C1079: x38+x43 <=1 
C1080: x38+x45-y38_45 <=1 
C1081: x38+x48-y38_48 <=1 
C1082: x38+x49-y38_49 <=1 
C1083: x38+x50 <=1 
C1084: x38+x51 <=1 
C1085: x38+x52-y38_52 <=1 
C1086: x38+x53 <=1 
C1087: x38+x54-y38_54 <=1 
C1088: x38+x55 <=1 
C1089: x38+x56-y38_56 <=1 
C1090: x38+x60 <=1 
C1091: x38+x62-y38_62 <=1 
C1092: x38+x63-y38_63 <=1 
C1093: x38+x64-y38_64 <=1 
C1094: x38+x66-y38_66 <=1 
C1095: x38+x67 <=1 
C1096: x38+x68 <=1 
C1097: x39+x40-y39_40 <=1 
C1098: x39+x41 <=1 
C1099: x39+x44-y39_44 <=1 
C1100: x39+x45-y39_45 <=1 
C1101: x39+x46-y39_46 <=1 
C1102: x39+x47-y39_47 <=1 
C1103: x39+x48-y39_48 <=1 
C1104: x39+x49-y39_49 <=1 
C1105: x39+x50-y39_50 <=1 
C1106: x39+x51-y39_51 <=1 
C1107: x39+x52 <=1 
C1108: x39+x55 <=1 
C1109: x39+x57-y39_57 <=1 
C1110: x39+x59 <=1 
C1111: x39+x60 <=1 
C1112: x39+x62 <=1 
C1113: x39+x63 <=1 
C1114: x39+x64 <=1 
C1115: x39+x67 <=1 
C1116: x40+x41-y40_41 <=1 
C1117: x40+x42-y40_42 <=1 
C1118: x40+x44 <=1 
C1119: x40+x47-y40_47 <=1 
C1120: x40+x48 <=1 
C1121: x40+x50-y40_50 <=1 
C1122: x40+x52 <=1 
C1123: x40+x54-y40_54 <=1 
C1124: x40+x55 <=1 
C1125: x40+x60 <=1 
C1126: x40+x62 <=1 
C1127: x40+x63 <=1 
C1128: x40+x65 <=1 
C1129: x40+x66 <=1 
C1130: x41+x43-y41_43 <=1 
C1131: x41+x44-y41_44 <=1 
C1132: x41+x45-y41_45 <=1 
C1133: x41+x46 <=1 
C1134: x41+x47-y41_47 <=1 
C1135: x41+x48 <=1 
C1136: x41+x52-y41_52 <=1 
C1137: x41+x53-y41_53 <=1 
C1138: x41+x54 <=1 
C1139: x41+x55-y41_55 <=1 
C1140: x41+x56 <=1 
C1141: x41+x57-y41_57 <=1 
C1142: x41+x58-y41_58 <=1 
C1143: x41+x59 <=1 
C1144: x41+x60 <=1 
C1145: x41+x61 <=1 
C1146: x41+x62 <=1 
C1147: x41+x63-y41_63 <=1 
C1148: x41+x65-y41_65 <=1 
C1149: x41+x66 <=1 
C1150: x41+x67-y41_67 <=1 
C1151: x41+x68 <=1 
C1152: x42+x44-y42_44 <=1 
C1153: x42+x45-y42_45 <=1 
C1154: x42+x46 <=1 
C1155: x42+x47-y42_47 <=1 
C1156: x42+x49 <=1 
C1157: x42+x50 <=1 
C1158: x42+x51 <=1 
C1159: x42+x52-y42_52 <=1 
C1160: x42+x55 <=1 
C1161: x42+x59 <=1 
C1162: x42+x60 <=1 
C1163: x42+x62 <=1 
C1164: x42+x65 <=1 
C1165: x42+x66-y42_66 <=1 
C1166: x42+x68-y42_68 <=1 
C1167: x43+x45-y43_45 <=1 
C1168: x43+x46 <=1 
C1169: x43+x49 <=1 
C1170: x43+x50 <=1 
C1171: x43+x53-y43_53 <=1 
C1172: x43+x54-y43_54 <=1 
C1173: x43+x56 <=1 
C1174: x43+x57 <=1 
C1175: x43+x59-y43_59 <=1 
C1176: x43+x60-y43_60 <=1 
C1177: x43+x61 <=1 
C1178: x43+x62-y43_62 <=1 
C1179: x43+x63 <=1 
C1180: x43+x64-y43_64 <=1 
C1181: x43+x65-y43_65 <=1 
C1182: x43+x67-y43_67 <=1 
C1183: x43+x68 <=1 
C1184: x44+x45 <=1 
C1185: x44+x46 <=1 
C1186: x44+x47 <=1 
C1187: x44+x50 <=1 
C1188: x44+x51 <=1 
C1189: x44+x55 <=1 
C1190: x44+x56-y44_56 <=1 
C1191: x44+x57 <=1 
C1192: x44+x58-y44_58 <=1 
C1193: x44+x59-y44_59 <=1 
C1194: x44+x62 <=1 
C1195: x44+x63-y44_63 <=1 
C1196: x44+x64-y44_64 <=1 
C1197: x44+x67-y44_67 <=1 
C1198: x45+x47-y45_47 <=1 
C1199: x45+x51 <=1 
C1200: x45+x52 <=1 
C1201: x45+x53 <=1 
C1202: x45+x55 <=1 
C1203: x45+x56-y45_56 <=1 
C1204: x45+x58 <=1 
C1205: x45+x59-y45_59 <=1 
C1206: x45+x60 <=1 
C1207: x45+x61 <=1 
C1208: x45+x63 <=1 
C1209: x45+x65-y45_65 <=1 
C1210: x46+x47-y46_47 <=1 
C1211: x46+x49-y46_49 <=1 
C1212: x46+x50-y46_50 <=1 
C1213: x46+x53 <=1 
C1214: x46+x54-y46_54 <=1 
C1215: x46+x55 <=1 
C1216: x46+x56 <=1 
C1217: x46+x58-y46_58 <=1 
C1218: x46+x60 <=1 
C1219: x46+x61-y46_61 <=1 
C1220: x46+x65 <=1 
C1221: x46+x68-y46_68 <=1 
C1222: x47+x49 <=1 
C1223: x47+x50 <=1 
C1224: x47+x51 <=1 
C1225: x47+x52 <=1 
C1226: x47+x54 <=1 
C1227: x47+x55 <=1 
C1228: x47+x56-y47_56 <=1 
C1229: x47+x57-y47_57 <=1 
C1230: x47+x59-y47_59 <=1 
C1231: x47+x60 <=1 
C1232: x47+x61 <=1 
C1233: x47+x62 <=1 
C1234: x47+x63-y47_63 <=1 
C1235: x47+x65-y47_65 <=1 
C1236: x47+x66-y47_66 <=1 
C1237: x47+x67-y47_67 <=1 
C1238: x47+x68-y47_68 <=1 
C1239: x48+x52-y48_52 <=1 
C1240: x48+x55-y48_55 <=1 
C1241: x48+x57-y48_57 <=1 
C1242: x48+x58-y48_58 <=1 
C1243: x48+x62-y48_62 <=1 
C1244: x48+x63-y48_63 <=1 
C1245: x49+x52-y49_52 <=1 
C1246: x49+x54 <=1 
C1247: x49+x55 <=1 
C1248: x49+x59-y49_59 <=1 
C1249: x49+x61-y49_61 <=1 
C1250: x49+x62 <=1 
C1251: x49+x63-y49_63 <=1 
C1252: x49+x65 <=1 
C1253: x49+x66-y49_66 <=1 
C1254: x49+x67 <=1 
C1255: x49+x68-y49_68 <=1 
C1256: x50+x51 <=1 
C1257: x50+x53 <=1 
C1258: x50+x54-y50_54 <=1 
C1259: x50+x57 <=1 
C1260: x50+x58-y50_58 <=1 
C1261: x50+x59 <=1 
C1262: x50+x62 <=1 
C1263: x50+x64-y50_64 <=1 
C1264: x50+x65-y50_65 <=1 
C1265: x50+x67-y50_67 <=1 
C1266: x50+x68-y50_68 <=1 
C1267: x51+x54 <=1 
C1268: x51+x55-y51_55 <=1 
C1269: x51+x57-y51_57 <=1 
C1270: x51+x59 <=1 
C1271: x51+x61-y51_61 <=1 
C1272: x51+x62-y51_62 <=1 
C1273: x51+x63 <=1 
C1274: x51+x65 <=1 
C1275: x51+x66-y51_66 <=1 
C1276: x51+x68-y51_68 <=1 
C1277: x52+x55-y52_55 <=1 
C1278: x52+x57-y52_57 <=1 
C1279: x52+x60 <=1 
C1280: x52+x61 <=1 
C1281: x52+x63-y52_63 <=1 
C1282: x52+x65 <=1 
C1283: x52+x66 <=1 
C1284: x52+x67 <=1 
C1285: x53+x55-y53_55 <=1 
C1286: x53+x57 <=1 
C1287: x53+x60 <=1 
C1288: x53+x61-y53_61 <=1 
C1289: x53+x62-y53_62 <=1 
C1290: x53+x63-y53_63 <=1 
C1291: x53+x65 <=1 
C1292: x53+x67-y53_67 <=1 
C1293: x53+x68-y53_68 <=1 
C1294: x54+x55-y54_55 <=1 
C1295: x54+x57 <=1 
C1296: x54+x60-y54_60 <=1 
C1297: x54+x61 <=1 
C1298: x54+x62-y54_62 <=1 
C1299: x54+x64 <=1 
C1300: x54+x65 <=1 
C1301: x54+x67 <=1 
C1302: x55+x56 <=1 
C1303: x55+x59 <=1 
C1304: x55+x60 <=1 
C1305: x55+x61-y55_61 <=1 
C1306: x55+x63-y55_63 <=1 
C1307: x55+x66 <=1 
C1308: x56+x59 <=1 
C1309: x56+x60 <=1 
C1310: x56+x62 <=1 
C1311: x56+x63 <=1 
C1312: x56+x64-y56_64 <=1 
C1313: x56+x65 <=1 
C1314: x56+x66 <=1 
C1315: x57+x63-y57_63 <=1 
C1316: x57+x65-y57_65 <=1 
C1317: x57+x66 <=1 
C1318: x57+x68-y57_68 <=1 
C1319: x58+x59-y58_59 <=1 
C1320: x58+x61-y58_61 <=1 
C1321: x58+x62-y58_62 <=1 
C1322: x58+x64 <=1 
C1323: x58+x66-y58_66 <=1 
C1324: x58+x67-y58_67 <=1 
C1325: x58+x68-y58_68 <=1 
C1326: x59+x62-y59_62 <=1 
C1327: x59+x63-y59_63 <=1 
C1328: x59+x65 <=1 
C1329: x59+x68-y59_68 <=1 
C1330: x60+x61-y60_61 <=1 
C1331: x60+x62 <=1 
C1332: x60+x66-y60_66 <=1 
C1333: x60+x67-y60_67 <=1 
C1334: x61+x62 <=1 
C1335: x61+x64 <=1 
C1336: x61+x66-y61_66 <=1 
C1337: x61+x67-y61_67 <=1 
C1338: x61+x68 <=1 
C1339: x62+x63-y62_63 <=1 
C1340: x62+x64 <=1 
C1341: x62+x65 <=1 
C1342: x62+x66-y62_66 <=1 
C1343: x62+x68-y62_68 <=1 
C1344: x63+x66-y63_66 <=1 
C1345: x63+x67-y63_67 <=1 
C1346: x63+x68-y63_68 <=1 
C1347: x64+x65-y64_65 <=1 
C1348: x65+x66-y65_66 <=1 
C1349: x65+x67 <=1 

binary
x0
x1
x2
x3
x4
x5
x6
x7
x8
x9
x10
x11
x12
x13
x14
x15
x16
x17
x18
x19
x20
x21
x22
x23
x24
x25
x26
x27
x28
x29
x30
x31
x32
x33
x34
x35
x36
x37
x38
x39
x40
x41
x42
x43
x44
x45
x46
x47
x48
x49
x50
x51
x52
x53
x54
x55
x56
x57
x58
x59
x60
x61
x62
x63
x64
x65
x66
x67
x68
