problem_generation/data/GISP/train/er_n=69_m=1349_p=0.60_SET2_setparam=100.00_alpha=0.50_484.sol
objective value:                                 1274
x1                                                  1 	(obj:100)
x11                                                 1 	(obj:100)
x14                                                 1 	(obj:100)
x21                                                 1 	(obj:100)
x33                                                 1 	(obj:100)
x34                                                 1 	(obj:100)
x48                                                 1 	(obj:100)
x49                                                 1 	(obj:100)
x51                                                 1 	(obj:100)
x57                                                 1 	(obj:100)
x58                                                 1 	(obj:100)
x60                                                 1 	(obj:100)
x61                                                 1 	(obj:100)
y11_14                                              1 	(obj:-1)
y48_58                                              1 	(obj:-1)
y21_49                                              1 	(obj:-1)
y1_48                                               1 	(obj:-1)
y1_34                                               1 	(obj:-1)
y58_61                                              1 	(obj:-1)
y11_51                                              1 	(obj:-1)
y1_14                                               1 	(obj:-1)
y34_48                                              1 	(obj:-1)
y34_57                                              1 	(obj:-1)
y34_61                                              1 	(obj:-1)
y48_57                                              1 	(obj:-1)
y34_51                                              1 	(obj:-1)
y21_57                                              1 	(obj:-1)
y51_57                                              1 	(obj:-1)
y51_61                                              1 	(obj:-1)
y1_60                                               1 	(obj:-1)
y49_61                                              1 	(obj:-1)
y11_61                                              1 	(obj:-1)
y60_61                                              1 	(obj:-1)
y14_57                                              1 	(obj:-1)
y14_34                                              1 	(obj:-1)
y34_49                                              1 	(obj:-1)
y14_61                                              1 	(obj:-1)
y21_60                                              1 	(obj:-1)
y33_34                                              1 	(obj:-1)
